p edge 60 178
e 1 11
e 1 20
e 1 30
e 1 37
e 1 40
e 1 42
e 1 51
e 1 56
e 2 3
e 2 8
e 2 14
e 2 28
e 3 6
e 3 18
e 3 33
e 3 35
e 3 36
e 3 52
e 4 21
e 4 31
e 4 60
e 5 34
e 5 38
e 5 55
e 6 8
e 6 30
e 6 33
e 6 44
e 6 47
e 6 54
e 7 18
e 7 47
e 7 49
e 8 17
e 8 21
e 8 27
e 8 40
e 8 41
e 8 47
e 8 57
e 9 47
e 10 31
e 10 50
e 11 12
e 11 15
e 11 37
e 11 42
e 11 60
e 12 18
e 12 21
e 12 29
e 12 40
e 12 47
e 12 48
e 13 24
e 13 39
e 13 42
e 13 56
e 14 33
e 14 41
e 14 50
e 14 56
e 14 59
e 15 16
e 15 32
e 15 35
e 15 50
e 15 54
e 15 58
e 16 22
e 16 41
e 16 43
e 16 45
e 16 52
e 17 23
e 17 40
e 17 57
e 18 24
e 18 46
e 19 28
e 19 29
e 19 32
e 19 33
e 19 44
e 19 54
e 20 56
e 21 31
e 21 48
e 22 40
e 22 60
e 23 33
e 24 29
e 24 48
e 24 53
e 24 54
e 24 56
e 24 57
e 25 27
e 25 28
e 25 29
e 25 30
e 25 35
e 25 57
e 25 60
e 26 29
e 26 35
e 26 47
e 26 48
e 27 36
e 27 37
e 27 39
e 27 42
e 27 44
e 27 51
e 27 53
e 28 38
e 28 43
e 28 48
e 30 42
e 30 43
e 30 48
e 30 57
e 31 46
e 31 49
e 31 51
e 31 53
e 31 55
e 31 60
e 32 40
e 32 55
e 33 35
e 33 40
e 33 44
e 33 49
e 34 36
e 34 37
e 34 40
e 34 51
e 37 43
e 37 47
e 37 52
e 37 60
e 38 43
e 38 59
e 39 40
e 39 54
e 39 56
e 40 47
e 40 50
e 40 53
e 41 42
e 41 58
e 41 59
e 42 46
e 42 49
e 42 55
e 43 56
e 44 48
e 44 55
e 45 51
e 45 57
e 45 58
e 45 60
e 46 54
e 48 50
e 48 51
e 48 52
e 48 57
e 49 52
e 50 54
e 50 59
e 51 58
e 52 53
e 52 56
e 52 58
e 54 56
e 54 58
e 57 58
